width,height
5,10
4,8
3,9
2,8
5,6
2,6
5,8
1,6
5,5
2,1
2,7
4,8
1,6
1,7
3,1
2,3
3,5
4,2
2,6
3,4
3,5
2,8
5,5
5,7
3,8
2,5
3,4
1,4
2,3
1,1
1,2
5,10
2,1
3,3
5,9
5,10
5,4
3,5
2,9
1,2
5,5
3,9
5,4
4,9
2,10
2,7
5,8
1,4
3,10
4,8
1,3
5,7
4,5
4,2
5,8
1,10
3,9
3,9
3,8
1,8
4,4
2,2
2,9
3,10
2,10
2,7
2,9
4,4
1,3
3,6
5,5
1,9
3,9
5,6
1,8
4,9
3,4
5,10
4,6
5,4
2,4
1,6
2,10
2,6
4,8
2,10
3,3
4,3
2,9
4,4
5,8
2,8
3,1
4,1
3,1
5,5
2,4
5,5
3,3
2,9
4,2
